(set-info :status unknown)
(declare-fun %Y () (_ BitVec 13))
(declare-fun %X () (_ BitVec 13))
(assert
 (let (($x21026 (and (distinct (bvudiv ((_ zero_extend 51) %X) ((_ zero_extend 51) %Y)) ((_ zero_extend 51) (bvudiv %X %Y))) true)))
 (and (and (distinct ((_ zero_extend 51) %Y) (_ bv0 64)) true) $x21026)))
(check-sat)
